(set-info :Origin "This instance was generated by: BanditFuzz-- an RL fuzzer for SMT solvers" )
(set-info :Author "Joe Scott, Fed Mora, Vijay Ganesh" )
(set-info :Contact "Joe Scott, joseph.scott@uwaterloo.ca")
(set-logic QF_BV)
(declare-const bool_0 Bool)
(declare-const bool_1 Bool)
(declare-const bool_2 Bool)
(declare-const bool_3 Bool)
(declare-const bool_4 Bool)
(declare-const bv_0 (_ BitVec 32))
(declare-const bv_1 (_ BitVec 32))
(declare-const bv_2 (_ BitVec 32))
(declare-const bv_3 (_ BitVec 32))
(declare-const bv_4 (_ BitVec 32))
(assert (=> (bvugt (bvlshr bv_4 bv_1) (bvashr bv_1 bv_0)) (bvslt (bvxnor #x6752b09c  #x0360209e ) (bvsmod #x27f87e17  #x13bfbb1b ))))
(assert (bvsgt (bvor (bvnand bv_0 #xcae1364b ) (bvurem #x9dae5906  bv_4)) (bvnor (bvmul #x0eee557a  bv_3) (bvxor #x710683b9  bv_2))))
(assert (not (bvslt (bvsrem #x2d913cad  #x8942a71e ) (bvudiv bv_1 bv_3))))
(assert (bvuge (bvnor (bvsmod #x00b13429  bv_4) (bvashr bv_4 bv_2)) (bvmul (bvmul bv_0 bv_3) (bvmul bv_2 bv_2))))
(assert (and (bvsle (bvmul bv_0 #x73b14bfe ) (bvadd #xcbad3ed3  bv_2)) (bvsgt (bvmul #xeb8ba8f1  #x13e62d77 ) (bvsdiv #xb78ac976  #x5651bd03 ))))
(check-sat)
(exit)
